
#(C) 2024 by FIZ Karlsruhe - Leibniz Institute for Information Infrastructure.  All rights reserved.
data_194996-ICSD
_database_code_ICSD 194996
_audit_creation_date 2015-08-01
_chemical_name_common 'Methylammonium lead triiodide'
_chemical_formula_structural '(C H3 N H3) Pb I3'
_chemical_formula_sum 'C1 H6 I3 N1 Pb1'
_exptl_crystal_density_diffrn 4.14
_citation_title

;
Study on the correlations between the structure and photoelectric properties
of C H3 N H3 Pb I3 perovskite light-harvesting material
;
loop_
_citation_id
_citation_journal_full
_citation_year
_citation_journal_volume
_citation_page_first
_citation_page_last
_citation_journal_id_ASTM
primary 'Journal of Power Sources' 2015 285 349 353 JPSODZ
loop_
_citation_author_citation_id
_citation_author_name
primary 'Xie, Junjie'
primary 'Liu, Yan'
primary 'Liu, Jianjun'
primary 'Lei, Lei'
primary 'Gao, Qianqian'
primary 'Li, Jiaqing'
primary 'Yang, Songwang'
_cell_length_a 8.86
_cell_length_b 8.86
_cell_length_c 12.651
_cell_angle_alpha 90.
_cell_angle_beta 90.
_cell_angle_gamma 90.
_cell_volume 993.09
_cell_formula_units_Z 4
_space_group_name_H-M_alt 'I 4 c m'
_space_group_IT_number 108
loop_
_space_group_symop_id
_space_group_symop_operation_xyz
1 'y+1/2, x+1/2, z'
2 '-y+1/2, -x+1/2, z'
3 'y, -x, z'
4 '-y, x, z'
5 'x+1/2, -y+1/2, z'
6 '-x+1/2, y+1/2, z'
7 '-x, -y, z'
8 'x, y, z'
9 'y, x, z+1/2'
10 '-y, -x, z+1/2'
11 'y+1/2, -x+1/2, z+1/2'
12 '-y+1/2, x+1/2, z+1/2'
13 'x, -y, z+1/2'
14 '-x, y, z+1/2'
15 '-x+1/2, -y+1/2, z+1/2'
16 'x+1/2, y+1/2, z+1/2'
loop_
_atom_type_symbol
_atom_type_oxidation_number
Pb2+ 2
I1- -1
C4+ 4
N3- -3
H1+ 1
H1- -1
loop_
_atom_site_label
_atom_site_type_symbol
_atom_site_symmetry_multiplicity
_atom_site_Wyckoff_symbol
_atom_site_fract_x
_atom_site_fract_y
_atom_site_fract_z
_atom_site_B_iso_or_equiv
_atom_site_occupancy
Pb1 Pb2+ 4 a 0 0 0.008 . 1.
I1 I1- 4 a 0 0 0.218 . 1.
I2 I1- 8 c 0.22 0.28 0.008 . 1.
C1 C4+ 4 b 0.5 0 0.316 . 1.
N1 N3- 4 b 0.5 0 0.232 . 1.
#End of TTdata_194996-ICSD