
#(C) 2024 by FIZ Karlsruhe - Leibniz Institute for Information Infrastructure.  All rights reserved.
data_230492-ICSD
_database_code_ICSD 230492
_audit_creation_date 2019-02-01
_chemical_name_common 'Methanimidamide lead iodide (1/1/3) - beta phase'
_chemical_formula_structural '(C H (N H2)2) Pb I3'
_chemical_formula_sum 'C1 H5 I3 N2 Pb1'
_exptl_crystal_density_diffrn 4.83
_diffrn_ambient_temperature 200.
_citation_title 'Phase behavior and polymorphism of formamidinium lead iodide'
loop_
_citation_id
_citation_journal_full
_citation_year
_citation_journal_volume
_citation_page_first
_citation_page_last
_citation_journal_id_ASTM
primary 'Chemistry of Materials' 2018 30 3768 3778 CMATEX
loop_
_citation_author_citation_id
_citation_author_name
primary 'Weber, Oliver J.'
primary 'Ghosh, Dibyajyoti'
primary 'Gaines, Sam'
primary 'Henry, Paul F.'
primary 'Walker, Alison B.'
primary 'Islam, M.Saiful'
primary 'Weller, Mark T.'
_cell_length_a 8.29312(35)
_cell_length_b 8.29312(35)
_cell_length_c 6.3222(47)
_cell_angle_alpha 90.
_cell_angle_beta 90.
_cell_angle_gamma 90.
_cell_volume 434.81
_cell_formula_units_Z 2
_space_group_name_H-M_alt 'P 4/m b m'
_space_group_IT_number 127
loop_
_space_group_symop_id
_space_group_symop_operation_xyz
1 'y+1/2, x+1/2, -z'
2 '-y+1/2, -x+1/2, -z'
3 '-y, x, -z'
4 'y, -x, -z'
5 'x+1/2, -y+1/2, -z'
6 '-x+1/2, y+1/2, -z'
7 'x, y, -z'
8 '-x, -y, -z'
9 '-y+1/2, -x+1/2, z'
10 'y+1/2, x+1/2, z'
11 'y, -x, z'
12 '-y, x, z'
13 '-x+1/2, y+1/2, z'
14 'x+1/2, -y+1/2, z'
15 '-x, -y, z'
16 'x, y, z'
loop_
_atom_type_symbol
_atom_type_oxidation_number
Pb2+ 2
I1- -1
C2+ 2
N3- -3
H1+ 1
loop_
_atom_site_label
_atom_site_type_symbol
_atom_site_symmetry_multiplicity
_atom_site_Wyckoff_symbol
_atom_site_fract_x
_atom_site_fract_y
_atom_site_fract_z
_atom_site_U_iso_or_equiv
_atom_site_occupancy
Pb1 Pb2+ 2 a 0 0 0 0.0227(28) 1.
I1 I1- 2 b 0 0 0.5 0.0182(38) 1.
I2 I1- 4 g 0.78586(64) 0.28586(64) 0 0.0610(41) 1.
C1 C2+ 4 f 0.5 0 0.57638(127) 0.0883(40) 0.5
N1 N3- 16 l 0.57077(78) 0.10716(103) 0.48056(154) 0.0883(40) 0.25
H1 H1+ 8 k 0.52940(121) 0.97060(121) 0.73117(485) 0.0883(40) 0.25
H2 H1+ 16 l 0.54568(149) 0.13225(163) 0.34842(369) 0.0883(40) 0.25
H3 H1+ 16 l 0.64466(191) 0.15595(150) 0.54663(221) 0.0883(40) 0.25
#End of TTdata_230492-ICSD