
#(C) 2024 by FIZ Karlsruhe - Leibniz Institute for Information Infrastructure.  All rights reserved.
data_230491-ICSD
_database_code_ICSD 230491
_audit_creation_date 2019-02-01
_chemical_name_common 'Methanimidamide lead iodide (1/1/3) - delta phase'
_chemical_formula_structural '(C H (N H2)2) Pb I3'
_chemical_formula_sum 'C1 H5 I3 N2 Pb1'
_exptl_crystal_density_diffrn 4.18
_diffrn_ambient_temperature 300.
_citation_title 'Phase behavior and polymorphism of formamidinium lead iodide'
loop_
_citation_id
_citation_journal_full
_citation_year
_citation_journal_volume
_citation_page_first
_citation_page_last
_citation_journal_id_ASTM
primary 'Chemistry of Materials' 2018 30 3768 3778 CMATEX
loop_
_citation_author_citation_id
_citation_author_name
primary 'Weber, Oliver J.'
primary 'Ghosh, Dibyajyoti'
primary 'Gaines, Sam'
primary 'Henry, Paul F.'
primary 'Walker, Alison B.'
primary 'Islam, M.Saiful'
primary 'Weller, Mark T.'
_cell_length_a 8.5891(49)
_cell_length_b 8.5891(49)
_cell_length_c 7.853(71)
_cell_angle_alpha 90.
_cell_angle_beta 90.
_cell_angle_gamma 120.
_cell_volume 501.72
_cell_formula_units_Z 2
_space_group_name_H-M_alt 'P 63/m m c'
_space_group_IT_number 194
loop_
_space_group_symop_id
_space_group_symop_operation_xyz
1 'x, x-y, -z+1/2'
2 '-x+y, y, -z+1/2'
3 '-y, -x, -z+1/2'
4 '-x+y, -x, -z+1/2'
5 '-y, x-y, -z+1/2'
6 'x, y, -z+1/2'
7 '-x, -x+y, z+1/2'
8 'x-y, -y, z+1/2'
9 'y, x, z+1/2'
10 'x-y, x, z+1/2'
11 'y, -x+y, z+1/2'
12 '-x, -y, z+1/2'
13 '-x, -x+y, -z'
14 'x-y, -y, -z'
15 'y, x, -z'
16 'x-y, x, -z'
17 'y, -x+y, -z'
18 '-x, -y, -z'
19 'x, x-y, z'
20 '-x+y, y, z'
21 '-y, -x, z'
22 '-x+y, -x, z'
23 '-y, x-y, z'
24 'x, y, z'
loop_
_atom_type_symbol
_atom_type_oxidation_number
Pb2+ 2
I1- -1
N3- -3
C2+ 2
H1+ 1
loop_
_atom_site_label
_atom_site_type_symbol
_atom_site_symmetry_multiplicity
_atom_site_Wyckoff_symbol
_atom_site_fract_x
_atom_site_fract_y
_atom_site_fract_z
_atom_site_U_iso_or_equiv
_atom_site_occupancy
Pb1 Pb2+ 2 a 0 0 0 0.0320(26) 1.
I1 I1- 6 h 0.82957(56) 0.17043(56) 0.25 0.0507(31) 1.
N1 N3- 24 l 0.2612(43) 0.6414(67) 0.1224(41) 0.0693(55) 0.0833
N2 N3- 24 l 0.3518(49) 0.7322(76) 0.3914(43) 0.0693(55) 0.0833
C1 C2+ 24 l 0.3889(35) 0.7128(39) 0.2351(34) 0.0693(55) 0.0833
H1 H1+ 24 l 0.5221(39) 0.7548(89) 0.1999(34) 0.0693(55) 0.0833
H2 H1+ 24 l 0.2261(71) 0.69264(141) 0.4247(57) 0.0693(55) 0.0833
H3 H1+ 24 l 0.4491(66) 0.7867(73) 0.4774(49) 0.0693(55) 0.0833
H4 H1+ 24 l 0.2895(59) 0.6266(69) 0.0033(53) 0.0693(55) 0.0833
H5 H1+ 24 l 0.1355(55) 0.6017(130) 0.1557(56) 0.0693(55) 0.0833
#End of TTdata_230491-ICSD