
#(C) 2024 by FIZ Karlsruhe - Leibniz Institute for Information Infrastructure.  All rights reserved.
data_235794-ICSD
_database_code_ICSD 235794
_audit_creation_date 2020-02-01
_chemical_name_common 'Methylammonium lead tribromide'
_chemical_formula_structural '(C H3 N H3) Pb Br3'
_chemical_formula_sum 'C1 H6 Br3 N1 Pb1'
_exptl_crystal_density_diffrn 3.83
_citation_title

;
Efficient planar heterojunction perovskite solar cells based on formamidinium
lead bromide
;
loop_
_citation_id
_citation_journal_full
_citation_year
_citation_journal_volume
_citation_page_first
_citation_page_last
_citation_journal_id_ASTM
primary 'Journal of Physical Chemistry Letters' 2014 5 2791 2795 JPCLCD
loop_
_citation_author_citation_id
_citation_author_name
primary 'Hanusch, Fabian C.'
primary 'Wiesenmayer, Erwin'
primary 'Mankel, Eric'
primary 'Binek, Andreas'
primary 'Angloher, Philipp'
primary 'Fraunhofer, Christina'
primary 'Giesbrecht, Nadja'
primary 'Feckl, Johann M.'
primary 'Jaegermann, Wolfram'
primary 'Johrendt, Dirk'
primary 'Bein, Thomas'
primary 'Docampo, Pablo'
_cell_length_a 5.923(1)
_cell_length_b 5.923(1)
_cell_length_c 5.923(1)
_cell_angle_alpha 90.
_cell_angle_beta 90.
_cell_angle_gamma 90.
_cell_volume 207.79
_cell_formula_units_Z 1
_space_group_name_H-M_alt 'P m -3 m'
_space_group_IT_number 221
loop_
_space_group_symop_id
_space_group_symop_operation_xyz
1 'z, y, -x'
2 'y, x, -z'
3 'x, z, -y'
4 'z, x, -y'
5 'y, z, -x'
6 'x, y, -z'
7 'z, -y, x'
8 'y, -x, z'
9 'x, -z, y'
10 'z, -x, y'
11 'y, -z, x'
12 'x, -y, z'
13 '-z, y, x'
14 '-y, x, z'
15 '-x, z, y'
16 '-z, x, y'
17 '-y, z, x'
18 '-x, y, z'
19 '-z, -y, -x'
20 '-y, -x, -z'
21 '-x, -z, -y'
22 '-z, -x, -y'
23 '-y, -z, -x'
24 '-x, -y, -z'
25 '-z, -y, x'
26 '-y, -x, z'
27 '-x, -z, y'
28 '-z, -x, y'
29 '-y, -z, x'
30 '-x, -y, z'
31 '-z, y, -x'
32 '-y, x, -z'
33 '-x, z, -y'
34 '-z, x, -y'
35 '-y, z, -x'
36 '-x, y, -z'
37 'z, -y, -x'
38 'y, -x, -z'
39 'x, -z, -y'
40 'z, -x, -y'
41 'y, -z, -x'
42 'x, -y, -z'
43 'z, y, x'
44 'y, x, z'
45 'x, z, y'
46 'z, x, y'
47 'y, z, x'
48 'x, y, z'
loop_
_atom_type_symbol
_atom_type_oxidation_number
Pb2+ 2
Br1- -1
C2- -2
N3- -3
H1+ 1
loop_
_atom_site_label
_atom_site_type_symbol
_atom_site_symmetry_multiplicity
_atom_site_Wyckoff_symbol
_atom_site_fract_x
_atom_site_fract_y
_atom_site_fract_z
_atom_site_U_iso_or_equiv
_atom_site_occupancy
Pb1 Pb2+ 1 a 0 0 0 0.0301(2) 1
Br1 Br1- 12 h 0 0.0724(2) 0.5 0.0241(4) 0.25
C1 C2- 12 j 0.4143(4) 0.4143(4) 0.5 . 0.0833
N1 N3- 12 j 0.5857(4) 0.5857(4) 0.5 . 0.0833
#End of TTdata_235794-ICSD