
#(C) 2024 by FIZ Karlsruhe - Leibniz Institute for Information Infrastructure.  All rights reserved.
data_241415-ICSD
_database_code_ICSD 241415
_audit_creation_date 2017-08-01
_audit_update_record 2020-02-01
_chemical_name_common 'Methylammonium lead trichloride'
_chemical_formula_structural '(C H3 N H3) Pb Cl3'
_chemical_formula_sum 'C1 H6 Cl3 N1 Pb1'
_exptl_crystal_density_diffrn 3.21
_diffrn_ambient_temperature 100.
_citation_title

;
Pseudomorphic transformation of organometal halide perovskite using the
gaseous hydrogen halide reaction
;
loop_
_citation_id
_citation_journal_full
_citation_year
_citation_journal_volume
_citation_page_first
_citation_page_last
_citation_journal_id_ASTM
primary 'Chemistry of Materials' 2016 28 5530 5537 CMATEX
loop_
_citation_author_citation_id
_citation_author_name
primary 'Chen, Kun'
primary 'Deng, Xiaohui'
primary 'Goddard, Richard'
primary 'Tueysuez, Harun'
_cell_length_a 11.1763(10)
_cell_length_b 11.3409(10)
_cell_length_c 11.2804(10)
_cell_angle_alpha 90.
_cell_angle_beta 90.
_cell_angle_gamma 90.
_cell_volume 1429.78
_cell_formula_units_Z 8
_space_group_name_H-M_alt 'P n m a'
_space_group_IT_number 62
loop_
_space_group_symop_id
_space_group_symop_operation_xyz
1 'x+1/2, y, -z+1/2'
2 'x, -y+1/2, z'
3 '-x+1/2, y+1/2, z+1/2'
4 '-x, -y, -z'
5 '-x+1/2, -y, z+1/2'
6 '-x, y+1/2, -z'
7 'x+1/2, -y+1/2, -z+1/2'
8 'x, y, z'
loop_
_atom_type_symbol
_atom_type_oxidation_number
C2- -2
Cl1- -1
N3- -3
Pb2+ 2
H1+ 1
loop_
_atom_site_label
_atom_site_type_symbol
_atom_site_symmetry_multiplicity
_atom_site_Wyckoff_symbol
_atom_site_fract_x
_atom_site_fract_y
_atom_site_fract_z
_atom_site_U_iso_or_equiv
_atom_site_occupancy
C1 C2- 4 c 0.5217(9) 0.25 0.4582(9) 0.026(2) 1.
C2 C2- 4 c 0.4416(8) 0.25 0.0436(7) 0.020(2) 1.
Cl1 Cl1- 4 c 0.7773(2) 0.75 0.2176(2) 0.014(1) 1.
Cl2 Cl1- 8 d 0.7188(1) 0.5283(1) 0.4723(1) 0.016(1) 1.
Cl3 Cl1- 8 d 0.5150(1) 0.5322(1) 0.2057(1) 0.016(1) 1.
Cl4 Cl1- 4 c 0.7209(2) 0.25 0.2223(2) 0.016(1) 1.
N1 N3- 4 c 0.4623(6) 0.25 0.5733(6) 0.014(1) 1.
N2 N3- 4 c 0.5559(6) 0.25 -0.0207(6) 0.017(1) 1.
Pb1 Pb2+ 8 d 0.7564(1) 0.4985(1) 0.2251(1) 0.008(1) 1.
H1 H1+ 4 c 0.456(11) 0.25 0.405(11) 0.04 1.
H2 H1+ 8 d 0.565(8) 0.312(8) 0.465(7) 0.04 1.
H3 H1+ 4 c 0.392(10) 0.25 -0.031(10) 0.03 1.
H4 H1+ 8 d 0.435(7) 0.321(7) 0.084(7) 0.03 1.
H5 H1+ 4 c 0.519(9) 0.25 0.626(9) 0.021 1.
H6 H1+ 8 d 0.419(6) 0.191(6) 0.585(6) 0.021 1.
H7 H1+ 4 c 0.614(10) 0.25 0.012(10) 0.026 1.
H8 H1+ 8 d 0.556(7) 0.183(7) -0.065(7) 0.026 1.
loop_
_atom_site_aniso_label
_atom_site_aniso_type_symbol
_atom_site_aniso_U_11
_atom_site_aniso_U_22
_atom_site_aniso_U_33
_atom_site_aniso_U_12
_atom_site_aniso_U_13
_atom_site_aniso_U_23
C1 C2- 0.028(4) 0.026(5) 0.026(4) 0. 0.009(4) 0.
C2 C2- 0.020(4) 0.025(4) 0.014(4) 0. 0.000(3) 0.
Cl1 Cl1- 0.015(1) 0.010(1) 0.017(1) 0. 0.001(1) 0.
Cl2 Cl1- 0.022(1) 0.019(1) 0.006(1) 0.004(1) 0.000(1) -0.001(1)
Cl3 Cl1- 0.009(1) 0.021(1) 0.020(1) 0.001(1) -0.001(1) 0.003(1)
Cl4 Cl1- 0.021(1) 0.011(1) 0.016(1) 0. -0.001(1) 0.
N1 N3- 0.016(3) 0.014(3) 0.012(3) 0. 0.001(2) 0.
N2 N3- 0.018(3) 0.023(4) 0.011(3) 0. -0.001(2) 0.
Pb1 Pb2+ 0.008(1) 0.009(1) 0.007(1) 0.000(1) 0.000(1) 0.000(1)
#End of TTdata_241415-ICSD