
#(C) 2024 by FIZ Karlsruhe - Leibniz Institute for Information Infrastructure.  All rights reserved.
data_250741-ICSD
_database_code_ICSD 250741
_audit_creation_date 2015-02-01
_chemical_name_common 'Formamidinium triiodoplumbate(II)'
_chemical_formula_structural '(H C (N H2)2) (Pb I3)'
_chemical_formula_sum 'C1 H5 I3 N2 Pb1'
_exptl_crystal_density_diffrn 4.1
_diffrn_ambient_temperature 293.
_citation_title

;
Semiconducting tin and lead iodide perovskites with organic cations. Phase
transitions, high mobilities, and near-infrared photoluminescent properties
;
loop_
_citation_id
_citation_journal_full
_citation_year
_citation_journal_volume
_citation_page_first
_citation_page_last
_citation_journal_id_ASTM
primary 'Inorganic Chemistry' 2013 52 9019 9038 INOCAJ
loop_
_citation_author_citation_id
_citation_author_name
primary 'Stoumpos, Constantinos C.'
primary 'Malliakas, Christos D.'
primary 'Kanatzidis, Mercouri G.'
_cell_length_a 8.6603(14)
_cell_length_b 8.6603(14)
_cell_length_c 7.9022(6)
_cell_angle_alpha 90.
_cell_angle_beta 90.
_cell_angle_gamma 120.
_cell_volume 513.26
_cell_formula_units_Z 2
_space_group_name_H-M_alt 'P 63 m c'
_space_group_IT_number 186
loop_
_space_group_symop_id
_space_group_symop_operation_xyz
1 '-x, -x+y, z+1/2'
2 'x-y, -y, z+1/2'
3 'y, x, z+1/2'
4 'x-y, x, z+1/2'
5 'y, -x+y, z+1/2'
6 '-x, -y, z+1/2'
7 'x, x-y, z'
8 '-x+y, y, z'
9 '-y, -x, z'
10 '-x+y, -x, z'
11 '-y, x-y, z'
12 'x, y, z'
loop_
_atom_type_symbol
_atom_type_oxidation_number
Pb2+ 2
I1- -1
N3- -3
C2+ 2
H1+ 1
loop_
_atom_site_label
_atom_site_type_symbol
_atom_site_symmetry_multiplicity
_atom_site_Wyckoff_symbol
_atom_site_fract_x
_atom_site_fract_y
_atom_site_fract_z
_atom_site_U_iso_or_equiv
_atom_site_occupancy
Pb1 Pb2+ 2 a 0. 0. 0.006(7) 0.0520(5) 1
I1 I1- 6 c 0.83117(8) 0.16883(8) 0.251(7) 0.0733(6) 1
N1 N3- 6 c 0.409(3) 0.591(3) 0.15493(17) 0.35(9) 0.67
C1 C2+ 2 b 0.3333 0.6667 0.15493(17) 0.099(17) 1
loop_
_atom_site_aniso_label
_atom_site_aniso_type_symbol
_atom_site_aniso_U_11
_atom_site_aniso_U_22
_atom_site_aniso_U_33
_atom_site_aniso_U_12
_atom_site_aniso_U_13
_atom_site_aniso_U_23
Pb1 Pb2+ 0.0520(6) 0.0520(6) 0.0520(8) 0.0260(3) 0. 0.
I1 I1- 0.0845(9) 0.0845(9) 0.0796(10) 0.0638(9) 0.0030(12) -0.0030(12)
#End of TTdata_250741-ICSD