
#(C) 2024 by FIZ Karlsruhe - Leibniz Institute for Information Infrastructure.  All rights reserved.
data_250735-ICSD
_database_code_ICSD 250735
_audit_creation_date 2015-02-01
_chemical_name_common 'Methylammonium triiodoplumbate(II)'
_chemical_formula_structural '(C H3 N H3) (Pb I3)'
_chemical_formula_sum 'C1 H6 I3 N1 Pb1'
_exptl_crystal_density_diffrn 4.09
_diffrn_ambient_temperature 400.
_citation_title

;
Semiconducting tin and lead iodide perovskites with organic cations. Phase
transitions, high mobilities, and near-infrared photoluminescent properties
;
loop_
_citation_id
_citation_journal_full
_citation_year
_citation_journal_volume
_citation_page_first
_citation_page_last
_citation_journal_id_ASTM
primary 'Inorganic Chemistry' 2013 52 9019 9038 INOCAJ
loop_
_citation_author_citation_id
_citation_author_name
primary 'Stoumpos, Constantinos C.'
primary 'Malliakas, Christos D.'
primary 'Kanatzidis, Mercouri G.'
_cell_length_a 6.3115(2)
_cell_length_b 6.3115(2)
_cell_length_c 6.3161(2)
_cell_angle_alpha 90.
_cell_angle_beta 90.
_cell_angle_gamma 90.
_cell_volume 251.6
_cell_formula_units_Z 1
_space_group_name_H-M_alt 'P 4 m m'
_space_group_IT_number 99
loop_
_space_group_symop_id
_space_group_symop_operation_xyz
1 'y, -x, z'
2 '-y, x, z'
3 '-y, -x, z'
4 'y, x, z'
5 'x, -y, z'
6 '-x, y, z'
7 '-x, -y, z'
8 'x, y, z'
loop_
_atom_type_symbol
_atom_type_oxidation_number
Pb2+ 2
I1- -1
C2- -2
N3- -3
H1+ 1
loop_
_atom_site_label
_atom_site_type_symbol
_atom_site_symmetry_multiplicity
_atom_site_Wyckoff_symbol
_atom_site_fract_x
_atom_site_fract_y
_atom_site_fract_z
_atom_site_U_iso_or_equiv
_atom_site_occupancy
Pb1 Pb2+ 1 b 0.5 0.5 0.50813(15) 0.04647(17) 1
I1 I1- 2 c 0.5 0. 0.5122(17) 0.1320(8) 1
I2 I1- 1 b 0.5 0.5 -0.0006(5) 0.1315(12) 1
C1 C2- 1 a 0. 0. -0.101(5) 0.116(18) 1
N1 N3- 1 a 0. 0. 0.118(7) 0.30(9) 1
loop_
_atom_site_aniso_label
_atom_site_aniso_type_symbol
_atom_site_aniso_U_11
_atom_site_aniso_U_22
_atom_site_aniso_U_33
_atom_site_aniso_U_12
_atom_site_aniso_U_13
_atom_site_aniso_U_23
Pb1 Pb2+ 0.0468(3) 0.0468(3) 0.0459(4) 0. 0. 0.
I1 I1- 0.181(2) 0.0365(7) 0.1783(17) 0. 0. 0.
I2 I1- 0.1814(18) 0.1814(18) 0.0316(10) 0. 0. 0.
#End of TTdata_250735-ICSD