
#(C) 2024 by FIZ Karlsruhe - Leibniz Institute for Information Infrastructure.  All rights reserved.
data_33037-ICSD
_database_code_ICSD 33037
_audit_creation_date 2022-02-01
_chemical_name_common 'Methylammonium tribromidoplumbate(II)'
_chemical_formula_structural '(C H3 N H3) Pb Br3'
_chemical_formula_sum 'C1 H6 Br3 N1 Pb1'
_exptl_crystal_density_diffrn 3.8
_citation_title

;
Synthesis, structure, mobility and memristor properties of tetragonal
CH$_3$NH$_3$PbBr$_3$ perovskite single crystals
;
loop_
_citation_id
_citation_journal_full
_citation_year
_citation_journal_volume
_citation_page_first
_citation_page_last
_citation_journal_id_ASTM
primary 'Dalton Transactions' 2021 50 10365 10368 DTARAF
loop_
_citation_author_citation_id
_citation_author_name
primary 'Cui, Jiawen'
primary 'Fu, Xuewei'
primary 'Zhou, Huawei'
primary 'Yin, Jie'
primary 'Wu, Mingxing'
primary 'Zhang, Xianxi'
_cell_length_a 5.9390(5)
_cell_length_b 5.9390(5)
_cell_length_c 11.8701(11)
_cell_angle_alpha 90.
_cell_angle_beta 90.
_cell_angle_gamma 90.
_cell_volume 418.68
_cell_formula_units_Z 2
_space_group_name_H-M_alt 'P 4/m m m'
_space_group_IT_number 123
loop_
_space_group_symop_id
_space_group_symop_operation_xyz
1 'y, x, -z'
2 '-y, -x, -z'
3 '-y, x, -z'
4 'y, -x, -z'
5 '-x, y, -z'
6 'x, -y, -z'
7 'x, y, -z'
8 '-x, -y, -z'
9 '-y, -x, z'
10 'y, x, z'
11 'y, -x, z'
12 '-y, x, z'
13 'x, -y, z'
14 '-x, y, z'
15 '-x, -y, z'
16 'x, y, z'
loop_
_atom_type_symbol
_atom_type_oxidation_number
Pb2+ 2
Br1- -1
C2- -2
H1+ 1
N3- -3
loop_
_atom_site_label
_atom_site_type_symbol
_atom_site_symmetry_multiplicity
_atom_site_Wyckoff_symbol
_atom_site_fract_x
_atom_site_fract_y
_atom_site_fract_z
_atom_site_U_iso_or_equiv
_atom_site_occupancy
Pb1 Pb2+ 2 h 0.5 0.5 0.2492(2) 0.014(1) 1.
Br1 Br1- 4 i 0.5 0 0.2527(6) 0.092(3) 1.
Br2 Br1- 1 c 0.5 0.5 0 0.092(7) 1.
Br3 Br1- 1 d 0.5 0.5 0.5 0.088(6) 1.
loop_
_atom_site_aniso_label
_atom_site_aniso_type_symbol
_atom_site_aniso_U_11
_atom_site_aniso_U_22
_atom_site_aniso_U_33
_atom_site_aniso_U_12
_atom_site_aniso_U_13
_atom_site_aniso_U_23
Pb1 Pb2+ 0.020(1) 0.020(1) 0.003(1) 0 0 0
Br1 Br1- 0.138(9) 0.017(4) 0.120(7) 0 0 0
Br2 Br1- 0.137(11) 0.137(11) 0.000(5) 0 0 0
Br3 Br1- 0.123(10) 0.123(1) 0.019(6) 0 0 0
#End of TTdata_33037-ICSD